4908418165707.0
5268362490042.0
4963935755358.0
4713966525122.0
5280729283174.0
5136294978872.0
4938075589100.0
4948531106744.0
4781230550978.0
4930657967347.0
4777676649347.0
4916225551231.0
5307435006478.0
5417242298136.0
4784163945593.0
5559131262976.0
5051509057170.0
5100429218746.0
4859792651844.0
5175032073064.0
5030750007603.0
4968375957180.0
5057660287980.0
5070831095745.0
5374017194874.0
5229070513639.0
4973425673842.0
5254353009702.0
4979736900672.0
4896737876449.0
